# Node Net
920   1
1579   1
1281   1
1580   1
1565   2
840   2
361   2
1320   2
 26   3
201   3
  7   3
 14   3
161   4
  3   4
1586   4
1577   4
1573   5
1594   5
 38   5
1595   5
 41   6
241   6
 27   6
1592   7
320   7
1596   7
1571   8
1001   8
1520   8
160   9
 35   9
761  10
200  10
